pymatgen with grid density = 631 / number of atoms
0
Gamma
6 4 4 
